(set-logic HORN)
(set-info :source |
    Benchmark: C_VC
    Output by Princess (http://www.philipp.ruemmer.org/princess.shtml)
|)
(set-info :status sat)
(declare-heap Heap Addr HeapObject
 defObj
 ((HeapObject 0) (_S 0)) (
  (
   (O_Int (getInt Int))
   (O_UInt (getUInt Int))
   (O_Addr (getAddr Addr))
   (O__S (get_S _S))
   (defObj)
  )
  (
   (_S (n Int))
  )
))
(declare-fun inv_main12 (Heap AddrRange AddrRange AddrRange Int Int) Bool)
(declare-fun inv_main16 (Heap AddrRange AddrRange AddrRange Int) Bool)
(declare-fun inv_main18 (Heap AddrRange AddrRange AddrRange Int Int) Bool)
(declare-fun inv_main19 (Heap AddrRange AddrRange AddrRange Int Int) Bool)
(declare-fun inv_main22 (Heap AddrRange AddrRange AddrRange Int) Bool)
(declare-fun inv_main3 (Heap AddrRange AddrRange AddrRange Int) Bool)
(declare-fun inv_main9 (Heap AddrRange AddrRange AddrRange Int Int) Bool)
(assert (forall ((var0 Int) (var1 AddrRange) (var2 AddrRange) (var3 AddrRange) (var4 Heap)) (or (not (and (and (and (= var4 (newBatchHeap (batchAlloc (newBatchHeap (batchAlloc (newBatchHeap (batchAlloc emptyHeap (O__S (_S 0)) 1000000)) (O__S (_S 0)) 1000000)) (O__S (_S 0)) 1000000))) (= var3 (newAddrRange (batchAlloc emptyHeap (O__S (_S 0)) 1000000)))) (= var2 (newAddrRange (batchAlloc (newBatchHeap (batchAlloc emptyHeap (O__S (_S 0)) 1000000)) (O__S (_S 0)) 1000000)))) (= var1 (newAddrRange (batchAlloc (newBatchHeap (batchAlloc (newBatchHeap (batchAlloc emptyHeap (O__S (_S 0)) 1000000)) (O__S (_S 0)) 1000000)) (O__S (_S 0)) 1000000))))) (inv_main3 var4 var3 var2 var1 var0))))
(assert (forall ((var0 Int) (var1 Int) (var2 AddrRange) (var3 AddrRange) (var4 AddrRange) (var5 Heap)) (or (not (inv_main3 var5 var4 var3 var2 var1)) (inv_main9 var5 var4 var3 var2 0 var0))))
(assert (forall ((var0 Int) (var1 AddrRange) (var2 AddrRange) (var3 AddrRange) (var4 Heap) (var5 Int) (var6 Int) (var7 Int) (var8 AddrRange) (var9 AddrRange) (var10 AddrRange) (var11 Heap)) (or (not (and (inv_main12 var11 var10 var9 var8 var7 var6) (and (<= 0 (+ (+ 1000000 (* (- 1) (+ var5 1))) (- 1))) (and (and (is-O__S (read var11 (nthAddrRange var9 var7))) (is-O__S (read var11 (nthAddrRange var9 var7)))) (and (and (and (and (= var4 (write var11 (nthAddrRange var9 var7) (O__S (_S var6)))) (= var3 var10)) (= var2 var9)) (= var1 var8)) (= var5 var7)))))) (inv_main9 var4 var3 var2 var1 (+ var5 1) var0))))
(assert (forall ((var0 Int) (var1 AddrRange) (var2 AddrRange) (var3 AddrRange) (var4 Heap)) (or (not (and (inv_main16 var4 var3 var2 var1 var0) (is-O__S (read var4 (nthAddrRange var3 var0))))) (inv_main18 var4 var3 var2 var1 var0 (n (get_S (read var4 (nthAddrRange var3 var0))))))))
(assert (forall ((var0 Int) (var1 Int) (var2 AddrRange) (var3 AddrRange) (var4 AddrRange) (var5 Heap)) (or (not (and (inv_main18 var5 var4 var3 var2 var1 var0) (is-O__S (read var5 (nthAddrRange var3 var1))))) (inv_main19 var5 var4 var3 var2 var1 (+ var0 (n (get_S (read var5 (nthAddrRange var3 var1)))))))))
(assert (forall ((var0 Int) (var1 Int) (var2 Int) (var3 AddrRange) (var4 AddrRange) (var5 AddrRange) (var6 Heap) (var7 Int) (var8 Int) (var9 AddrRange) (var10 AddrRange) (var11 AddrRange) (var12 Heap)) (or (not (and (inv_main9 var12 var11 var10 var9 var8 var7) (and (and (is-O__S (read var12 (nthAddrRange var11 var8))) (is-O__S (read var12 (nthAddrRange var11 var8)))) (and (and (and (and (and (= var6 (write var12 (nthAddrRange var11 var8) (O__S (_S var7)))) (= var5 var11)) (= var4 var10)) (= var3 var9)) (= var2 var8)) (= var1 var7))))) (inv_main12 var6 var5 var4 var3 var2 var0))))
(assert (forall ((var0 Int) (var1 AddrRange) (var2 AddrRange) (var3 AddrRange) (var4 Heap)) (or (not (and (inv_main22 var4 var3 var2 var1 var0) (and (<= 0 (+ (+ 1000000 (* (- 1) (+ var0 1))) (- 1))) (and (and (is-O__S (read var4 (nthAddrRange var1 var0))) (is-O__S (read var4 (nthAddrRange var3 var0)))) (is-O__S (read var4 (nthAddrRange var2 var0))))))) (inv_main22 var4 var3 var2 var1 (+ var0 1)))))
(assert (forall ((var0 AddrRange) (var1 AddrRange) (var2 AddrRange) (var3 Heap) (var4 Int) (var5 Int) (var6 Int) (var7 AddrRange) (var8 AddrRange) (var9 AddrRange) (var10 Heap)) (or (not (and (inv_main19 var10 var9 var8 var7 var6 var5) (and (not (<= 0 (+ (+ 1000000 (* (- 1) (+ var4 1))) (- 1)))) (and (and (is-O__S (read var10 (nthAddrRange var7 var6))) (is-O__S (read var10 (nthAddrRange var7 var6)))) (and (and (and (and (= var3 (write var10 (nthAddrRange var7 var6) (O__S (_S var5)))) (= var2 var9)) (= var1 var8)) (= var0 var7)) (= var4 var6)))))) (inv_main22 var3 var2 var1 var0 0))))
(assert (forall ((var0 AddrRange) (var1 AddrRange) (var2 AddrRange) (var3 Heap) (var4 Int) (var5 Int) (var6 Int) (var7 AddrRange) (var8 AddrRange) (var9 AddrRange) (var10 Heap)) (or (not (and (inv_main19 var10 var9 var8 var7 var6 var5) (and (<= 0 (+ (+ 1000000 (* (- 1) (+ var4 1))) (- 1))) (and (and (is-O__S (read var10 (nthAddrRange var7 var6))) (is-O__S (read var10 (nthAddrRange var7 var6)))) (and (and (and (and (= var3 (write var10 (nthAddrRange var7 var6) (O__S (_S var5)))) (= var2 var9)) (= var1 var8)) (= var0 var7)) (= var4 var6)))))) (inv_main16 var3 var2 var1 var0 (+ var4 1)))))
(assert (forall ((var0 AddrRange) (var1 AddrRange) (var2 AddrRange) (var3 Heap) (var4 Int) (var5 Int) (var6 Int) (var7 AddrRange) (var8 AddrRange) (var9 AddrRange) (var10 Heap)) (or (not (and (inv_main12 var10 var9 var8 var7 var6 var5) (and (not (<= 0 (+ (+ 1000000 (* (- 1) (+ var4 1))) (- 1)))) (and (and (is-O__S (read var10 (nthAddrRange var8 var6))) (is-O__S (read var10 (nthAddrRange var8 var6)))) (and (and (and (and (= var3 (write var10 (nthAddrRange var8 var6) (O__S (_S var5)))) (= var2 var9)) (= var1 var8)) (= var0 var7)) (= var4 var6)))))) (inv_main16 var3 var2 var1 var0 0))))
(assert (forall ((var0 Int) (var1 Int) (var2 AddrRange) (var3 AddrRange) (var4 AddrRange) (var5 Heap)) (not (and (inv_main9 var5 var4 var3 var2 var1 var0) (not (is-O__S (read var5 (nthAddrRange var4 var1))))))))
(assert (forall ((var0 Int) (var1 Int) (var2 AddrRange) (var3 AddrRange) (var4 AddrRange) (var5 Heap)) (not (and (inv_main9 var5 var4 var3 var2 var1 var0) (and (is-O__S (read var5 (nthAddrRange var4 var1))) (not (within var4 (nthAddrRange var4 var1))))))))
(assert (forall ((var0 Int) (var1 Int) (var2 AddrRange) (var3 AddrRange) (var4 AddrRange) (var5 Heap)) (not (and (inv_main9 var5 var4 var3 var2 var1 var0) (and (is-O__S (read var5 (nthAddrRange var4 var1))) (not (is-O__S (read var5 (nthAddrRange var4 var1)))))))))
(assert (forall ((var0 Int) (var1 Int) (var2 AddrRange) (var3 AddrRange) (var4 AddrRange) (var5 Heap)) (not (and (inv_main12 var5 var4 var3 var2 var1 var0) (not (is-O__S (read var5 (nthAddrRange var3 var1))))))))
(assert (forall ((var0 Int) (var1 Int) (var2 AddrRange) (var3 AddrRange) (var4 AddrRange) (var5 Heap)) (not (and (inv_main12 var5 var4 var3 var2 var1 var0) (and (is-O__S (read var5 (nthAddrRange var3 var1))) (not (within var3 (nthAddrRange var3 var1))))))))
(assert (forall ((var0 Int) (var1 Int) (var2 AddrRange) (var3 AddrRange) (var4 AddrRange) (var5 Heap)) (not (and (inv_main12 var5 var4 var3 var2 var1 var0) (and (is-O__S (read var5 (nthAddrRange var3 var1))) (not (is-O__S (read var5 (nthAddrRange var3 var1)))))))))
(assert (forall ((var0 Int) (var1 AddrRange) (var2 AddrRange) (var3 AddrRange) (var4 Heap)) (not (and (inv_main16 var4 var3 var2 var1 var0) (not (is-O__S (read var4 (nthAddrRange var3 var0))))))))
(assert (forall ((var0 Int) (var1 AddrRange) (var2 AddrRange) (var3 AddrRange) (var4 Heap)) (not (and (inv_main16 var4 var3 var2 var1 var0) (and (is-O__S (read var4 (nthAddrRange var3 var0))) (not (within var3 (nthAddrRange var3 var0))))))))
(assert (forall ((var0 Int) (var1 Int) (var2 AddrRange) (var3 AddrRange) (var4 AddrRange) (var5 Heap)) (not (and (inv_main18 var5 var4 var3 var2 var1 var0) (not (is-O__S (read var5 (nthAddrRange var3 var1))))))))
(assert (forall ((var0 Int) (var1 Int) (var2 AddrRange) (var3 AddrRange) (var4 AddrRange) (var5 Heap)) (not (and (inv_main18 var5 var4 var3 var2 var1 var0) (and (is-O__S (read var5 (nthAddrRange var3 var1))) (not (within var3 (nthAddrRange var3 var1))))))))
(assert (forall ((var0 Int) (var1 Int) (var2 AddrRange) (var3 AddrRange) (var4 AddrRange) (var5 Heap)) (not (and (inv_main19 var5 var4 var3 var2 var1 var0) (not (is-O__S (read var5 (nthAddrRange var2 var1))))))))
(assert (forall ((var0 Int) (var1 Int) (var2 AddrRange) (var3 AddrRange) (var4 AddrRange) (var5 Heap)) (not (and (inv_main19 var5 var4 var3 var2 var1 var0) (and (is-O__S (read var5 (nthAddrRange var2 var1))) (not (within var2 (nthAddrRange var2 var1))))))))
(assert (forall ((var0 Int) (var1 Int) (var2 AddrRange) (var3 AddrRange) (var4 AddrRange) (var5 Heap)) (not (and (inv_main19 var5 var4 var3 var2 var1 var0) (and (is-O__S (read var5 (nthAddrRange var2 var1))) (not (is-O__S (read var5 (nthAddrRange var2 var1)))))))))
(assert (forall ((var0 Int) (var1 AddrRange) (var2 AddrRange) (var3 AddrRange) (var4 Heap)) (not (and (inv_main22 var4 var3 var2 var1 var0) (not (is-O__S (read var4 (nthAddrRange var1 var0))))))))
(assert (forall ((var0 Int) (var1 AddrRange) (var2 AddrRange) (var3 AddrRange) (var4 Heap)) (not (and (inv_main22 var4 var3 var2 var1 var0) (not (within var1 (nthAddrRange var1 var0)))))))
(assert (forall ((var0 Int) (var1 AddrRange) (var2 AddrRange) (var3 AddrRange) (var4 Heap)) (not (and (inv_main22 var4 var3 var2 var1 var0) (not (is-O__S (read var4 (nthAddrRange var3 var0))))))))
(assert (forall ((var0 Int) (var1 AddrRange) (var2 AddrRange) (var3 AddrRange) (var4 Heap)) (not (and (inv_main22 var4 var3 var2 var1 var0) (not (within var3 (nthAddrRange var3 var0)))))))
(assert (forall ((var0 Int) (var1 AddrRange) (var2 AddrRange) (var3 AddrRange) (var4 Heap)) (not (and (inv_main22 var4 var3 var2 var1 var0) (not (is-O__S (read var4 (nthAddrRange var2 var0))))))))
(assert (forall ((var0 Int) (var1 AddrRange) (var2 AddrRange) (var3 AddrRange) (var4 Heap)) (not (and (inv_main22 var4 var3 var2 var1 var0) (not (within var2 (nthAddrRange var2 var0)))))))
(assert (forall ((var0 Int) (var1 AddrRange) (var2 AddrRange) (var3 AddrRange) (var4 Heap)) (not (and (inv_main22 var4 var3 var2 var1 var0) (not (is-O__S (read var4 (nthAddrRange var1 var0))))))))
(assert (forall ((var0 Int) (var1 AddrRange) (var2 AddrRange) (var3 AddrRange) (var4 Heap)) (not (and (inv_main22 var4 var3 var2 var1 var0) (and (is-O__S (read var4 (nthAddrRange var1 var0))) (not (within var1 (nthAddrRange var1 var0))))))))
(assert (forall ((var0 Int) (var1 AddrRange) (var2 AddrRange) (var3 AddrRange) (var4 Heap)) (not (and (inv_main22 var4 var3 var2 var1 var0) (and (is-O__S (read var4 (nthAddrRange var1 var0))) (not (is-O__S (read var4 (nthAddrRange var3 var0)))))))))
(assert (forall ((var0 Int) (var1 AddrRange) (var2 AddrRange) (var3 AddrRange) (var4 Heap)) (not (and (inv_main22 var4 var3 var2 var1 var0) (and (and (is-O__S (read var4 (nthAddrRange var1 var0))) (is-O__S (read var4 (nthAddrRange var3 var0)))) (not (within var3 (nthAddrRange var3 var0))))))))
(assert (forall ((var0 Int) (var1 AddrRange) (var2 AddrRange) (var3 AddrRange) (var4 Heap)) (not (and (inv_main22 var4 var3 var2 var1 var0) (and (and (is-O__S (read var4 (nthAddrRange var1 var0))) (is-O__S (read var4 (nthAddrRange var3 var0)))) (not (is-O__S (read var4 (nthAddrRange var2 var0)))))))))
(assert (forall ((var0 Int) (var1 AddrRange) (var2 AddrRange) (var3 AddrRange) (var4 Heap)) (not (and (inv_main22 var4 var3 var2 var1 var0) (and (and (and (is-O__S (read var4 (nthAddrRange var1 var0))) (is-O__S (read var4 (nthAddrRange var3 var0)))) (is-O__S (read var4 (nthAddrRange var2 var0)))) (not (within var2 (nthAddrRange var2 var0))))))))
(assert (forall ((var0 Int) (var1 AddrRange) (var2 AddrRange) (var3 AddrRange) (var4 Heap)) (not (and (inv_main22 var4 var3 var2 var1 var0) (and (and (and (is-O__S (read var4 (nthAddrRange var1 var0))) (is-O__S (read var4 (nthAddrRange var3 var0)))) (is-O__S (read var4 (nthAddrRange var2 var0)))) (not (= (n (get_S (read var4 (nthAddrRange var1 var0)))) (+ (n (get_S (read var4 (nthAddrRange var3 var0)))) (n (get_S (read var4 (nthAddrRange var2 var0))))))))))))
(check-sat)
